NAME          DCAP_2_4_3_500_SS421
ROWS
 N  OBJ
 L  CON1
 L  CON2
 L  CON3
 L  CON4
 L  CON5
 L  CON6
 L  CON7
 L  CON8
 L  CON9
 L  CON10
 L  CON11
 L  CON12
 E  CON13
 E  CON14
 E  CON15
 E  CON16
 E  CON17
 E  CON18
 E  CON19
 E  CON20
 E  CON21
 E  CON22
 E  CON23
 E  CON24
COLUMNS
    x[1,1]    OBJ       6.180167      CON1      1.000000    
    x[1,1]    CON7      -1.000000     CON8      -1.000000   
    x[1,1]    CON9      -1.000000   
    x[1,2]    OBJ       6.563535      CON2      1.000000    
    x[1,2]    CON8      -1.000000     CON9      -1.000000   
    x[1,3]    OBJ       7.443064      CON3      1.000000    
    x[1,3]    CON9      -1.000000   
    x[2,1]    OBJ       6.732585      CON4      1.000000    
    x[2,1]    CON10     -1.000000     CON11     -1.000000   
    x[2,1]    CON12     -1.000000   
    x[2,2]    OBJ       5.039546      CON5      1.000000    
    x[2,2]    CON11     -1.000000     CON12     -1.000000   
    x[2,3]    OBJ       6.054841      CON6      1.000000    
    x[2,3]    CON12     -1.000000   
    MARKER    'MARKER'                'INTORG'
    u[1,1]    OBJ       48.076654     CON1      -1.000000   
    u[1,2]    OBJ       20.066487     CON2      -1.000000   
    u[1,3]    OBJ       32.230043     CON3      -1.000000   
    u[2,1]    OBJ       49.996186     CON4      -1.000000   
    u[2,2]    OBJ       49.466655     CON5      -1.000000   
    u[2,3]    OBJ       27.484319     CON6      -1.000000   
    y[1,1,1]  OBJ       9.055425      CON7      0.512399    
    y[1,1,1]  CON13     1.000000    
    y[1,1,2]  OBJ       5.744467      CON8      0.937766    
    y[1,1,2]  CON14     1.000000    
    y[1,1,3]  OBJ       7.709266      CON9      0.654900    
    y[1,1,3]  CON15     1.000000    
    y[1,2,1]  OBJ       7.526412      CON7      1.302929    
    y[1,2,1]  CON16     1.000000    
    y[1,2,2]  OBJ       8.583858      CON8      1.014834    
    y[1,2,2]  CON17     1.000000    
    y[1,2,3]  OBJ       9.946597      CON9      0.595172    
    y[1,2,3]  CON18     1.000000    
    y[1,3,1]  OBJ       5.898798      CON7      1.433320    
    y[1,3,1]  CON19     1.000000    
    y[1,3,2]  OBJ       8.107507      CON8      0.638126    
    y[1,3,2]  CON20     1.000000    
    y[1,3,3]  OBJ       7.739350      CON9      1.380869    
    y[1,3,3]  CON21     1.000000    
    y[1,4,1]  OBJ       9.336199      CON7      0.669385    
    y[1,4,1]  CON22     1.000000    
    y[1,4,2]  OBJ       6.051205      CON8      0.807934    
    y[1,4,2]  CON23     1.000000    
    y[1,4,3]  OBJ       8.668050      CON9      0.989924    
    y[1,4,3]  CON24     1.000000    
    y[2,1,1]  OBJ       6.737112      CON10     0.512399    
    y[2,1,1]  CON13     1.000000    
    y[2,1,2]  OBJ       7.842160      CON11     0.937766    
    y[2,1,2]  CON14     1.000000    
    y[2,1,3]  OBJ       8.735427      CON12     0.654900    
    y[2,1,3]  CON15     1.000000    
    y[2,2,1]  OBJ       5.739973      CON10     1.302929    
    y[2,2,1]  CON16     1.000000    
    y[2,2,2]  OBJ       7.447979      CON11     1.014834    
    y[2,2,2]  CON17     1.000000    
    y[2,2,3]  OBJ       9.218433      CON12     0.595172    
    y[2,2,3]  CON18     1.000000    
    y[2,3,1]  OBJ       8.679362      CON10     1.433320    
    y[2,3,1]  CON19     1.000000    
    y[2,3,2]  OBJ       6.720008      CON11     0.638126    
    y[2,3,2]  CON20     1.000000    
    y[2,3,3]  OBJ       6.643613      CON12     1.380869    
    y[2,3,3]  CON21     1.000000    
    y[2,4,1]  OBJ       9.640151      CON10     0.669385    
    y[2,4,1]  CON22     1.000000    
    y[2,4,2]  OBJ       6.470702      CON11     0.807934    
    y[2,4,2]  CON23     1.000000    
    y[2,4,3]  OBJ       7.679223      CON12     0.989924    
    y[2,4,3]  CON24     1.000000    
    z[1,1]    OBJ       624.082524    CON13     1.000000    
    z[1,2]    OBJ       612.848256    CON14     1.000000    
    z[1,3]    OBJ       829.442806    CON15     1.000000    
    z[2,1]    OBJ       558.161261    CON16     1.000000    
    z[2,2]    OBJ       532.523889    CON17     1.000000    
    z[2,3]    OBJ       850.923507    CON18     1.000000    
    z[3,1]    OBJ       576.931947    CON19     1.000000    
    z[3,2]    OBJ       952.965704    CON20     1.000000    
    z[3,3]    OBJ       827.425704    CON21     1.000000    
    z[4,1]    OBJ       603.078986    CON22     1.000000    
    z[4,2]    OBJ       768.137914    CON23     1.000000    
    z[4,3]    OBJ       781.132694    CON24     1.000000    
    MARKER    'MARKER'                 'INTEND'
RHS
    RHS       CON1      -0.000000     CON2      -0.000000   
    RHS       CON3      -0.000000     CON4      -0.000000   
    RHS       CON5      -0.000000     CON6      -0.000000   
    RHS       CON7      -0.000000     CON8      -0.000000   
    RHS       CON9      -0.000000     CON10     -0.000000   
    RHS       CON11     -0.000000     CON12     -0.000000   
    RHS       CON13     1.000000      CON14     1.000000    
    RHS       CON15     1.000000      CON16     1.000000    
    RHS       CON17     1.000000      CON18     1.000000    
    RHS       CON19     1.000000      CON20     1.000000    
    RHS       CON21     1.000000      CON22     1.000000    
    RHS       CON23     1.000000      CON24     1.000000    
BOUNDS
 BV BOUND     u[1,1]  
 BV BOUND     u[1,2]  
 BV BOUND     u[1,3]  
 BV BOUND     u[2,1]  
 BV BOUND     u[2,2]  
 BV BOUND     u[2,3]  
 BV BOUND     y[1,1,1]
 BV BOUND     y[1,1,2]
 BV BOUND     y[1,1,3]
 BV BOUND     y[1,2,1]
 BV BOUND     y[1,2,2]
 BV BOUND     y[1,2,3]
 BV BOUND     y[1,3,1]
 BV BOUND     y[1,3,2]
 BV BOUND     y[1,3,3]
 BV BOUND     y[1,4,1]
 BV BOUND     y[1,4,2]
 BV BOUND     y[1,4,3]
 BV BOUND     y[2,1,1]
 BV BOUND     y[2,1,2]
 BV BOUND     y[2,1,3]
 BV BOUND     y[2,2,1]
 BV BOUND     y[2,2,2]
 BV BOUND     y[2,2,3]
 BV BOUND     y[2,3,1]
 BV BOUND     y[2,3,2]
 BV BOUND     y[2,3,3]
 BV BOUND     y[2,4,1]
 BV BOUND     y[2,4,2]
 BV BOUND     y[2,4,3]
 BV BOUND     z[1,1]  
 BV BOUND     z[1,2]  
 BV BOUND     z[1,3]  
 BV BOUND     z[2,1]  
 BV BOUND     z[2,2]  
 BV BOUND     z[2,3]  
 BV BOUND     z[3,1]  
 BV BOUND     z[3,2]  
 BV BOUND     z[3,3]  
 BV BOUND     z[4,1]  
 BV BOUND     z[4,2]  
 BV BOUND     z[4,3]  
ENDATA
